c colouring generated by benchmark framework
p edge 35 595
v 1 14
v 2 9
v 3 10
v 4 30
v 5 23
v 6 11
v 7 19
v 8 17
v 9 12
v 10 6
v 11 16
v 12 18
v 13 22
v 14 24
v 15 28
v 16 32
v 17 33
v 18 34
v 19 5
v 20 27
v 21 0
v 22 15
v 23 20
v 24 7
v 25 1
v 26 21
v 27 25
v 28 2
v 29 29
v 30 3
v 31 13
v 32 8
v 33 26
v 34 31
v 35 4
